language ESSENCE' 1.0

letting jobs = 102
letting horizon = 824
letting resourcesRenew = 2
letting resourcesNonrenew = 2
letting resourceLimits = [53, 57, 571, 609]
letting successors = [[2, 3, 4, 5, 6, 7, 8, 9, 10, 12, 13, 14, 15, 16, 17, 18, 19, 20, 21, 22, 23, 24, 26, 27, 28, 29, 79], [101, 100, 78, 77, 76, 73, 72, 70, 64, 62, 61, 60, 57, 54, 53, 52, 50, 49, 48, 47, 46, 44, 37, 33, 30], [100, 75, 73, 72, 71, 65, 64, 63, 54, 50, 49, 48, 45, 43, 41, 34, 33, 11], [100, 77, 75, 72, 64, 50, 48, 42, 40, 34, 25, 11], [101, 95, 76, 75, 73, 72, 71, 70, 65, 63, 61, 60, 58, 57, 56, 54, 53, 51, 48, 47, 46, 34, 33], [101, 94, 77, 73, 70, 68, 64, 60, 59, 58, 56, 55, 54, 53, 51, 50, 38, 35, 34], [100, 97, 96, 94, 93, 73, 72, 63, 58, 57, 56, 55, 53, 49, 46, 36, 33], [101, 100, 95, 91, 77, 73, 72, 65, 64, 56, 55, 53, 51, 39, 33], [100, 97, 93, 75, 74, 72, 68, 64, 62, 55, 35, 31], [100, 97, 96, 76, 73, 70, 68, 64, 62, 61, 59, 58, 56, 53, 48, 46, 44], [101, 97, 95, 94, 93, 92, 90, 76, 74, 70, 68, 60, 58, 56, 53, 35], [100, 98, 97, 94, 92, 91, 75, 72, 69, 59, 53, 52, 32], [100, 99, 98, 97, 93, 92, 88, 75, 73, 72, 71, 70, 68, 62, 61, 59, 50, 46], [101, 100, 96, 92, 69, 68, 65, 64, 59, 51, 31], [99, 98, 97, 96, 95, 94, 93, 92, 91, 89, 75, 73, 72, 70, 68, 67, 60, 59, 58, 54, 48], [100, 99, 97, 94, 93, 92, 91, 89, 76, 72, 69, 68, 67, 64, 58, 55, 54, 53, 48], [99, 98, 97, 96, 93, 90, 88, 73, 70, 69, 68, 65, 64, 60, 50, 47, 46], [101, 100, 99, 96, 93, 84, 74, 73, 70, 69, 68, 61, 59, 46, 37], [100, 96, 91, 90, 89, 88, 87, 78, 77, 74, 73, 72, 71, 70, 69, 68, 66, 61, 57, 44], [100, 98, 97, 96, 93, 73, 72, 71, 70, 69, 68, 67, 61, 57, 37], [100, 99, 96, 93, 91, 89, 87, 86, 74, 71, 69, 68, 64, 59, 56, 44], [99, 97, 96, 95, 92, 75, 71, 70, 68, 56, 54, 51, 46], [100, 99, 98, 97, 96, 93, 92, 88, 85, 75, 73, 70, 69, 68, 61, 46], [100, 95, 93, 91, 89, 86, 73, 72, 71, 69, 68, 64, 60, 53, 49, 48], [98, 93, 92, 86, 74, 71, 69, 66, 63, 62, 59, 54, 46], [101, 98, 95, 92, 91, 89, 87, 76, 70, 68, 64, 59, 55, 53], [100, 99, 96, 95, 93, 89, 88, 87, 83, 70, 69, 64, 50, 44], [101, 97, 92, 89, 87, 86, 85, 72, 71, 68, 61, 59, 58, 53, 49], [100, 96, 94, 89, 88, 87, 85, 83, 76, 72, 70, 69, 67, 66], [97, 96, 95, 94, 93, 91, 89, 87, 85, 67, 58, 55], [94, 91, 90, 89, 87, 85, 71, 70, 58, 53, 49], [95, 93, 89, 86, 84, 83, 68, 60, 58, 54, 48], [99, 98, 89, 88, 87, 86, 84, 83, 69, 68, 67, 66, 59], [99, 97, 96, 93, 92, 91, 90, 87, 86, 85, 84, 82, 74, 66], [99, 96, 86, 84, 81, 69, 46], [99, 95, 76, 75, 70, 69, 54], [95, 94, 92, 91, 89, 88, 87, 86, 85, 83, 82, 66], [98, 97, 96, 95, 92, 89, 86, 82, 80, 71, 66], [97, 94, 92, 90, 87, 85, 83, 75, 67, 66], [98, 93, 86, 84, 83, 80, 66, 60], [97, 96, 93, 92, 87, 83, 80, 66], [95, 90, 88, 87, 86, 85, 83, 80], [94, 92, 86, 85, 82, 81, 67], [94, 92, 85, 84, 81, 67], [101, 85, 84, 83, 80, 66], [91, 89, 87, 83, 67], [94, 85, 84, 81, 74], [90, 87, 80, 66], [84, 83, 80, 66], [86, 85, 80, 66], [93, 84, 80, 66], [85, 84, 83, 67], [88, 82, 81, 80], [90, 88, 85, 80], [84, 82, 71], [98, 88, 85], [86, 83, 82], [82, 66], [90, 82], [85, 82], [83, 82], [95, 87], [84, 80], [66], [67], [81], [80], [82], [82], [86], [83], [84], [81], [80], [84], [86], [83], [80], [82], [102], [102], [102], [102], [102], [102], [102], [102], [102], [102], [102], [102], [102], [102], [102], [102], [102], [102], [102], [102], [102], [102], []]
letting durations = [[0], [4, 5, 10], [5, 7, 8], [6, 8, 9], [6, 6, 7], [2, 6, 8], [2, 3, 5], [4, 6, 8], [3, 5, 8], [2, 7, 8], [1, 2, 6], [5, 6, 10], [2, 7, 8], [5, 8, 10], [3, 3, 4], [1, 7, 10], [1, 8, 9], [3, 5, 6], [3, 8, 10], [2, 8, 9], [4, 9, 10], [1, 1, 10], [1, 5, 8], [4, 6, 7], [2, 5, 10], [5, 7, 8], [1, 2, 4], [2, 3, 7], [3, 6, 9], [1, 7, 10], [7, 8, 10], [1, 8, 9], [5, 6, 10], [1, 2, 8], [3, 5, 9], [4, 5, 10], [4, 5, 10], [2, 7, 8], [2, 3, 10], [4, 6, 8], [3, 4, 6], [5, 7, 8], [4, 9, 10], [3, 4, 8], [1, 5, 8], [3, 4, 9], [1, 3, 4], [2, 7, 10], [5, 7, 10], [1, 3, 7], [8, 8, 10], [5, 9, 10], [2, 3, 4], [2, 5, 7], [4, 5, 9], [1, 4, 8], [6, 9, 10], [1, 2, 3], [7, 8, 9], [7, 8, 10], [2, 6, 7], [4, 5, 9], [1, 9, 10], [1, 3, 4], [6, 8, 9], [1, 3, 9], [1, 2, 3], [2, 3, 10], [2, 2, 3], [5, 6, 7], [6, 6, 7], [4, 8, 9], [5, 9, 10], [1, 8, 10], [2, 6, 10], [3, 5, 6], [4, 5, 9], [5, 9, 10], [2, 8, 9], [4, 8, 9], [4, 5, 6], [1, 7, 8], [1, 2, 8], [7, 8, 9], [3, 6, 9], [2, 4, 4], [2, 5, 10], [2, 7, 10], [4, 6, 10], [6, 8, 8], [5, 9, 10], [1, 5, 8], [3, 3, 9], [3, 4, 10], [1, 2, 4], [1, 2, 8], [2, 7, 8], [4, 6, 9], [5, 8, 9], [1, 8, 9], [7, 8, 10], [0]]
letting resourceUsage = [[[0, 0, 0, 0]], [[0, 4, 8, 1], [0, 2, 8, 1], [0, 1, 7, 1]], [[4, 0, 2, 6], [2, 0, 2, 5], [1, 0, 2, 4]], [[0, 5, 7, 9], [3, 0, 6, 5], [1, 0, 5, 4]], [[0, 1, 2, 2], [3, 0, 2, 2], [3, 0, 2, 1]], [[2, 0, 4, 7], [0, 2, 3, 7], [1, 0, 3, 4]], [[0, 5, 6, 7], [0, 3, 4, 6], [3, 0, 2, 6]], [[0, 2, 7, 9], [4, 0, 7, 5], [4, 0, 7, 4]], [[0, 2, 6, 5], [0, 1, 5, 4], [0, 1, 4, 2]], [[5, 0, 4, 7], [5, 0, 3, 7], [5, 0, 3, 6]], [[0, 4, 7, 5], [0, 4, 5, 5], [0, 4, 3, 3]], [[0, 4, 7, 7], [0, 3, 5, 7], [0, 3, 5, 6]], [[0, 2, 5, 8], [1, 0, 5, 6], [0, 1, 5, 3]], [[0, 3, 1, 7], [1, 0, 1, 7], [0, 1, 1, 6]], [[0, 4, 6, 10], [1, 0, 2, 11], [1, 0, 2, 10]], [[2, 0, 5, 7], [0, 4, 4, 4], [0, 4, 3, 2]], [[3, 0, 3, 3], [0, 4, 2, 3], [2, 0, 1, 2]], [[4, 0, 10, 8], [3, 0, 8, 8], [0, 2, 8, 7]], [[0, 2, 5, 4], [0, 2, 3, 4], [1, 0, 3, 3]], [[3, 0, 6, 1], [2, 0, 6, 2], [2, 0, 6, 1]], [[2, 0, 8, 7], [2, 0, 7, 4], [0, 5, 7, 3]], [[0, 4, 4, 8], [2, 0, 4, 7], [0, 2, 4, 6]], [[0, 2, 2, 7], [1, 0, 2, 5], [1, 0, 1, 5]], [[5, 0, 8, 2], [4, 0, 3, 2], [0, 2, 1, 2]], [[3, 0, 4, 4], [0, 2, 4, 3], [0, 2, 1, 2]], [[0, 3, 7, 7], [5, 0, 6, 5], [0, 3, 5, 4]], [[0, 5, 8, 5], [0, 5, 6, 3], [3, 0, 6, 2]], [[0, 4, 7, 4], [1, 0, 5, 3], [0, 2, 5, 3]], [[3, 0, 3, 8], [2, 0, 3, 6], [0, 2, 3, 5]], [[2, 0, 9, 7], [2, 0, 6, 4], [0, 3, 4, 2]], [[4, 0, 9, 5], [0, 3, 8, 5], [4, 0, 7, 5]], [[0, 5, 7, 3], [1, 0, 5, 2], [0, 5, 5, 2]], [[2, 0, 6, 8], [0, 4, 4, 7], [1, 0, 2, 4]], [[0, 3, 10, 8], [0, 3, 6, 8], [5, 0, 5, 8]], [[4, 0, 4, 8], [3, 0, 4, 5], [3, 0, 3, 2]], [[0, 3, 6, 5], [0, 2, 6, 5], [0, 2, 6, 4]], [[0, 4, 7, 1], [3, 0, 7, 1], [0, 3, 7, 1]], [[5, 0, 4, 7], [4, 0, 3, 7], [0, 1, 2, 6]], [[4, 0, 3, 9], [4, 0, 2, 7], [0, 3, 1, 7]], [[4, 0, 3, 5], [0, 3, 2, 4], [4, 0, 2, 3]], [[0, 2, 8, 6], [4, 0, 6, 6], [4, 0, 5, 5]], [[0, 4, 9, 9], [0, 4, 7, 7], [3, 0, 7, 7]], [[0, 2, 9, 9], [4, 0, 4, 6], [2, 0, 2, 4]], [[2, 0, 8, 9], [0, 2, 8, 8], [0, 1, 8, 7]], [[3, 0, 1, 9], [2, 0, 1, 8], [2, 0, 1, 7]], [[0, 4, 1, 4], [0, 4, 1, 3], [0, 3, 1, 4]], [[3, 0, 7, 9], [3, 0, 7, 7], [3, 0, 7, 6]], [[0, 4, 10, 6], [0, 4, 8, 6], [0, 4, 6, 6]], [[3, 0, 8, 7], [3, 0, 7, 7], [3, 0, 6, 7]], [[4, 0, 5, 6], [0, 2, 3, 4], [0, 1, 3, 4]], [[0, 3, 5, 7], [3, 0, 5, 6], [0, 3, 5, 4]], [[0, 3, 9, 7], [2, 0, 7, 4], [2, 0, 7, 3]], [[0, 5, 4, 8], [0, 3, 3, 5], [3, 0, 3, 4]], [[0, 2, 6, 9], [3, 0, 3, 7], [3, 0, 2, 6]], [[0, 2, 4, 6], [0, 2, 3, 6], [0, 2, 3, 5]], [[0, 4, 5, 7], [2, 0, 4, 4], [0, 2, 3, 1]], [[1, 0, 5, 2], [0, 2, 4, 2], [0, 2, 2, 2]], [[0, 3, 7, 8], [2, 0, 7, 8], [0, 1, 5, 8]], [[4, 0, 9, 9], [3, 0, 9, 5], [2, 0, 9, 3]], [[3, 0, 7, 7], [2, 0, 5, 4], [0, 1, 4, 3]], [[0, 2, 7, 5], [0, 1, 6, 3], [0, 1, 6, 2]], [[0, 4, 5, 10], [0, 3, 4, 9], [2, 0, 2, 9]], [[0, 2, 4, 6], [0, 1, 4, 4], [0, 1, 4, 2]], [[0, 4, 6, 9], [2, 0, 6, 9], [0, 3, 4, 8]], [[3, 0, 6, 7], [3, 0, 5, 7], [3, 0, 5, 4]], [[4, 0, 10, 8], [0, 5, 9, 7], [4, 0, 9, 6]], [[0, 4, 6, 7], [0, 4, 5, 5], [0, 4, 5, 4]], [[0, 3, 7, 6], [0, 3, 4, 4], [3, 0, 2, 3]], [[0, 4, 8, 6], [4, 0, 8, 4], [0, 3, 6, 3]], [[2, 0, 3, 7], [2, 0, 3, 6], [2, 0, 2, 7]], [[4, 0, 7, 8], [0, 3, 4, 7], [0, 3, 4, 6]], [[0, 3, 7, 7], [3, 0, 7, 6], [0, 2, 7, 5]], [[0, 3, 10, 7], [0, 3, 7, 7], [1, 0, 4, 7]], [[0, 3, 8, 9], [0, 2, 6, 8], [0, 2, 5, 8]], [[3, 0, 8, 8], [2, 0, 6, 6], [2, 0, 6, 5]], [[4, 0, 4, 4], [0, 1, 3, 4], [0, 1, 3, 3]], [[5, 0, 9, 8], [0, 3, 5, 8], [2, 0, 5, 6]], [[4, 0, 8, 3], [3, 0, 5, 3], [2, 0, 3, 2]], [[5, 0, 8, 9], [4, 0, 8, 7], [0, 2, 7, 7]], [[0, 5, 10, 2], [4, 0, 4, 2], [0, 3, 2, 2]], [[3, 0, 10, 4], [2, 0, 9, 4], [0, 3, 9, 4]], [[0, 3, 8, 9], [0, 3, 8, 8], [0, 1, 8, 9]], [[0, 2, 6, 9], [0, 2, 6, 7], [0, 2, 4, 6]], [[3, 0, 3, 7], [0, 3, 2, 6], [2, 0, 1, 4]], [[0, 3, 5, 8], [0, 2, 5, 8], [2, 0, 2, 7]], [[0, 3, 7, 5], [0, 2, 7, 4], [4, 0, 7, 4]], [[0, 5, 10, 8], [1, 0, 10, 7], [0, 5, 10, 6]], [[0, 4, 4, 10], [0, 3, 2, 9], [0, 1, 2, 9]], [[0, 4, 6, 8], [2, 0, 6, 6], [2, 0, 6, 5]], [[0, 3, 10, 8], [0, 2, 10, 7], [4, 0, 10, 5]], [[0, 2, 5, 2], [0, 1, 4, 2], [0, 1, 4, 1]], [[3, 0, 7, 6], [3, 0, 6, 5], [3, 0, 5, 4]], [[5, 0, 9, 9], [0, 5, 9, 8], [2, 0, 8, 7]], [[3, 0, 9, 10], [0, 3, 6, 9], [0, 1, 6, 9]], [[0, 4, 6, 6], [2, 0, 6, 5], [2, 0, 6, 4]], [[0, 4, 6, 8], [0, 3, 6, 8], [1, 0, 5, 7]], [[0, 2, 2, 6], [4, 0, 2, 6], [4, 0, 2, 5]], [[3, 0, 5, 3], [3, 0, 2, 3], [3, 0, 2, 2]], [[1, 0, 5, 7], [0, 1, 3, 6], [0, 1, 2, 4]], [[4, 0, 2, 7], [3, 0, 2, 7], [0, 5, 2, 7]], [[0, 4, 5, 7], [1, 0, 3, 6], [0, 4, 3, 3]], [[0, 0, 0, 0]]]
